STOP = {A,B,C,D,E,F,G,H,I,dummy};
dstop = dummy;
minimal_wait = [  1,  1,  2,  1,  1,  1,  1,  1,  1, 0 ];
skip_cost =    [  0,  1,  0,  2,  0,  0,  2,  2,  0, 0 ];             
platform =     [  1,  1,  2,  1,  1,  1,  1,  1,  1, 0]; 
stype = [TERMINUS, ORDINARY, HUB, ORDINARY, TERMINUS, 
         TERMINUS, ORDINARY, ORDINARY, TERMINUS, ORDINARY]; 
               %  A   B   C   D   E   F   G   H   I dummy 
travel_time = [|  0,  1, <>, <>, <>, <>, <>, <>, <>, 0
               |  1,  0,  1, <>, <>, <>, <>, <>, <>, 0
               | <>,  1,  0,  1, <>, <>,  1,  1, <>, 0
               | <>, <>,  1,  0,  1, <>, <>, <>, <>, 0
               | <>, <>, <>,  1,  0, <>, <>, <>, <>, 0
               | <>, <>, <>, <>, <>,  0,  1, <>, <>, 0
               | <>, <>,  1, <>, <>,  1,  0, <>, <>, 0
               | <>, <>,  1, <>, <>, <>, <>,  0,  1, 0
               | <>, <>, <>, <>, <>, <>, <>,  1,  0, 0
               |  0,  0,  0,  0,  0,  0,  0,  0,  0, 0
               |];
line = [| NONE, QUAD, NONE, NONE, NONE, NONE, NONE, NONE, NONE, NONE
        | QUAD, NONE, QUAD, NONE, NONE, NONE, NONE, NONE, NONE, NONE
        | NONE, QUAD, NONE, QUAD, NONE, NONE, QUAD, QUAD, NONE, NONE
        | NONE, NONE, QUAD, NONE, QUAD, NONE, NONE, NONE, NONE, NONE
        | NONE, NONE, NONE, QUAD, NONE, NONE, NONE, NONE, NONE, NONE
        | NONE, NONE, NONE, NONE, NONE, NONE, QUAD, NONE, NONE, NONE
        | NONE, NONE, QUAD, NONE, NONE, QUAD, NONE, NONE, NONE, NONE
        | NONE, NONE, QUAD, NONE, NONE, NONE, NONE, NONE, QUAD, NONE
        | NONE, NONE, NONE, NONE, NONE, NONE, NONE, QUAD, NONE, NONE
        | NONE, NONE, NONE, NONE, NONE, NONE, NONE, NONE, NONE, NONE
        |];
makespan = 60; 
min_sep = 1;                  

ROUTE = anon_enum(8);
max_route_length = 5;
rlength = [ 5, 5, 5, 5, 3, 3, 3, 3 ];
route = [| A, B, C, D, E
         | E, D, C, H, I
         | I, H, C, G, F
         | F, G, C, B, A
         | C, D, E, dstop, dstop
         | E, D, C, dstop, dstop
         | C, H, I, dstop, dstop
         | I, H, C, dstop, dstop
         |];
         
SERVICE = { R01, R02, R03, R04, R05, R06, R07, R08, R09, R10, R11, R12, R13, R14, R15, R16 };
sroute = [ ROUTE[i] | i in 1..8] ++ [ ROUTE[i] | i in 1..8] ;
service_start = [ 0,  0,  0,  0,  0,  0,  0,  0,  12, 12, 12, 12, 12, 12, 12, 12 ] ;
service_end   = [60, 60, 60, 60, 60, 60, 60, 60,  60, 60, 60, 60, 60, 60, 60, 60 ];         
           
ENGINE = { E1, E2 };
start = [A, C];
